Minimize
  - 5 y_0 - 18 y_1 - 12 y_2 - 9 y_3 - 6 y_4 - 4 y_5 - 13 y_7 - 13 y_8
   - 9 y_9 + 22 x_0_3 + 56 x_1_0 + 89 x_1_4 + 48 x_1_9 + 50 x_2_6
   + 85 x_2_7 + 52 x_3_5 + 36 x_3_6 + 22 x_4_6 + 74 x_4_8 + 71 x_5_7
   + 2 x_7_8 + 58 x_7_9 + 57 x_8_9 + 57 x_8_9 + 57 x_8_9 + 57 x_8_9
   + 57 x_8_9 + 57 x_8_9 + 57 x_8_9 + 57 x_8_9 + 57 x_8_9 + 57 x_8_9
   + 57 x_8_9 + 57 x_8_9 + 57 x_8_9 + 57 x_8_9 + 57 x_8_9 + 57 x_8_9
   + 57 x_8_9 + 57 x_8_9 + 57 x_8_9 + 57 x_8_9 + 57 x_8_9 + 57 x_8_9
   + 57 x_8_9 + 57 x_8_9 + 57 x_8_9 + 57 x_8_9 + 57 x_8_9 + 57 x_8_9
   + 57 x_8_9 + 57 x_8_9 + 57 x_8_9 + 57 x_8_9 + 57 x_8_9 + 57 x_8_9
   + 57 x_8_9 + 57 x_8_9 + 57 x_8_9 + 57 x_8_9 + 57 x_8_9 + 57 x_8_9
   + 57 x_8_9 + 57 x_8_9 + 57 x_8_9 + 57 x_8_9 + 57 x_8_9 + 57 x_8_9
   + 57 x_8_9 + 57 x_8_9 + 57 x_8_9 + 57 x_8_9 + 57 x_8_9 + 57 x_8_9
   + 57 x_8_9 + 57 x_8_9 + 57 x_8_9 + 57 x_8_9 + 57 x_8_9 + 57 x_8_9
   + 57 x_8_9 + 57 x_8_9 + 57 x_8_9 + 57 x_8_9 + 57 x_8_9 + 57 x_8_9
   + 57 x_8_9 + 57 x_8_9 + 57 x_8_9 + 57 x_8_9 + 57 x_8_9 + 57 x_8_9
   + 57 x_8_9 + 57 x_8_9 + 57 x_8_9 + 57 x_8_9 + 57 x_8_9 + 57 x_8_9
   + 57 x_8_9 + 57 x_8_9 + 57 x_8_9 + 57 x_8_9 + 57 x_8_9 + 57 x_8_9
   + 57 x_8_9 + 57 x_8_9 + 57 x_8_9 + 57 x_8_9 + 57 x_8_9 + 57 x_8_9
   + 57 x_8_9 + 57 x_8_9 + 57 x_8_9 + 57 x_8_9 + 57 x_8_9 + 57 x_8_9
   + 57 x_8_9 + 57 x_8_9 + 57 x_8_9 + 57 x_8_9 + 57 x_8_9 + 57 x_8_9
   + 57 x_8_9 + 57 x_8_9 + 57 x_8_9 + 57 x_8_9 + 57 x_8_9 + 57 x_8_9
   + 57 x_8_9 + 57 x_8_9 + 57 x_8_9 + 57 x_8_9 + 57 x_8_9 + 57 x_8_9
   + 57 x_8_9 + 57 x_8_9 + 57 x_8_9 + 57 x_8_9 + 57 x_8_9 + 57 x_8_9
   + 57 x_8_9 + 57 x_8_9 + 57 x_8_9 + 57 x_8_9 + 57 x_8_9 + 57 x_8_9
   + 57 x_8_9 + 57 x_8_9 + 57 x_8_9 + 57 x_8_9 + 57 x_8_9 + 57 x_8_9
   + 57 x_8_9 + 89 Constant
Subject To
 c_0: y_0 = 1
 c_1_0: y_0 >= 1
 c_1_1: y_1 >= 1
 c_1_2: y_2 >= 1
 c_1_3: y_3 >= 1
 c_1_4: y_4 + y_5 >= 1
 c_1_5: y_4 + y_5 >= 1
 c_1_6: y_6 >= 1
 c_1_7: y_7 + y_8 >= 1
 c_1_8: y_7 + y_8 >= 1
 c_1_9: y_9 >= 1
 c_2_0: - 2 y_0 + x_0_3 + x_1_0 = 0
 c_2_1: - 2 y_1 + x_1_0 + x_1_4 + x_1_9 = 0
 c_2_2: - 2 y_2 + x_2_6 + x_2_7 = 0
 c_2_3: - 2 y_3 + x_0_3 + x_3_5 + x_3_6 = 0
 c_2_4: - 2 y_4 + x_1_4 + x_4_6 + x_4_8 = 0
 c_2_5: - 2 y_5 + x_3_5 + x_5_7 = 0
 c_2_6: - 2 y_6 + x_2_6 + x_3_6 + x_4_6 = 0
 c_2_7: - 2 y_7 + x_2_7 + x_5_7 + x_7_8 + x_7_9 = 0
 c_2_8: - 2 y_8 + x_4_8 + x_7_8 + 131 x_8_9 = 0
 c_2_9: - 2 y_9 + x_1_9 + x_7_9 + 131 x_8_9 = 0
Bounds
 Constant = 1
Binaries
 y_0 y_1 y_2 y_3 y_4 y_5 y_6 y_7 y_8 y_9 x_0_3 x_1_0 x_1_4 x_1_9 x_2_6
 x_2_7 x_3_5 x_3_6 x_4_6 x_4_8 x_5_7 x_7_8 x_7_9 x_8_9 x_8_9 x_8_9 x_8_9
 x_8_9 x_8_9 x_8_9 x_8_9 x_8_9 x_8_9 x_8_9 x_8_9 x_8_9 x_8_9 x_8_9 x_8_9
 x_8_9 x_8_9 x_8_9 x_8_9 x_8_9 x_8_9 x_8_9 x_8_9 x_8_9 x_8_9 x_8_9 x_8_9
 x_8_9 x_8_9 x_8_9 x_8_9 x_8_9 x_8_9 x_8_9 x_8_9 x_8_9 x_8_9 x_8_9 x_8_9
 x_8_9 x_8_9 x_8_9 x_8_9 x_8_9 x_8_9 x_8_9 x_8_9 x_8_9 x_8_9 x_8_9 x_8_9
 x_8_9 x_8_9 x_8_9 x_8_9 x_8_9 x_8_9 x_8_9 x_8_9 x_8_9 x_8_9 x_8_9 x_8_9
 x_8_9 x_8_9 x_8_9 x_8_9 x_8_9 x_8_9 x_8_9 x_8_9 x_8_9 x_8_9 x_8_9 x_8_9
 x_8_9 x_8_9 x_8_9 x_8_9 x_8_9 x_8_9 x_8_9 x_8_9 x_8_9 x_8_9 x_8_9 x_8_9
 x_8_9 x_8_9 x_8_9 x_8_9 x_8_9 x_8_9 x_8_9 x_8_9 x_8_9 x_8_9 x_8_9 x_8_9
 x_8_9 x_8_9 x_8_9 x_8_9 x_8_9 x_8_9 x_8_9 x_8_9 x_8_9 x_8_9 x_8_9 x_8_9
 x_8_9 x_8_9 x_8_9 x_8_9 x_8_9 x_8_9 x_8_9 x_8_9 x_8_9 x_8_9 x_8_9 x_8_9
 x_8_9 x_8_9 x_8_9 x_8_9 x_8_9 x_8_9 x_8_9
End
